231620
231620
231620
227359
227359
227359
227359
226160
226160
224062
224062
223077
223077
222751
219282
219282
218381
218258
217355
217355
216516
216516
216516
216516
215859
215859
213802
213802
212185
211807
211807
211807
211807
211807
211807
211807
211364
205780
204745
201912
201912
201912
201912
201912
199469
199469
199469
199469
199469
199433
199289
195029
195029
195029
194569
194569
194569
194569
192148
191317
191317
191317
191317
190856
190856
188472
188472
188472
188472
188044
188044
188044
188044
186747
186747
186747
186180
186180
186180
185898
185898
185898
185898
185799
184801
184463
184463
184216
184191
182893
182893
182673
182673
181066
180030
180030
180030
179653
179653
177133
